Normalized Data/p03_12_normalized_split0.vrp
NAME:p03_12_NORMALIZED_split
BEST_KNOWN: 0
COMMENT: 0
DIMENSION: 426
CAPACITY: 100
EDGE_WEIGHT_FORMAT: FUNCTION
EDGE_WEIGHT_TYPE: EXACT_2D
NODE_COORD_SECTION
1 0.00000 0.00000
2 -19 -18
3 -19 -18
4 -42 29
5 -42 29
6 -42 29
7 -42 29
8 -42 29
9 11 48
10 11 48
11 11 48
12 11 48
13 39 25
14 39 25
15 39 25
16 -10 16
17 -10 16
18 -10 16
19 22 5
20 22 5
21 22 5
22 -1 38
23 -1 38
24 -1 38
25 -1 38
26 -1 38
27 -1 41
28 -1 41
29 -1 41
30 -20 -40
31 -20 -40
32 -20 -40
33 -20 -40
34 -6 -44
35 -6 -44
36 -6 -44
37 -6 -44
38 -6 -44
39 24 -44
40 24 -44
41 -25 26
42 -25 26
43 -25 26
44 8 -1
45 8 -1
46 8 -1
47 8 -1
48 8 -1
49 37 45
50 37 45
51 37 45
52 37 45
53 37 45
54 36 45
55 36 45
56 36 45
57 36 45
58 36 45
59 -28 -11
60 -28 -11
61 -28 -11
62 -32 35
63 -32 35
64 -32 35
65 -32 35
66 34 29
67 34 29
68 -45 -45
69 -45 -45
70 -45 -45
71 -45 -45
72 -45 -45
73 -22 -5
74 -22 -5
75 -22 -5
76 -22 -5
77 -22 -5
78 -22 -5
79 -7 -28
80 -7 -28
81 -7 -28
82 -7 -28
83 -7 -28
84 -30 6
85 -30 6
86 -30 6
87 -30 6
88 -30 6
89 4 -40
90 4 -40
91 4 -40
92 4 -40
93 4 -40
94 4 -40
95 -40 -21
96 -40 -21
97 -40 -21
98 -40 -21
99 -3 -31
100 -3 -31
101 -3 -31
102 -3 -31
103 -3 -31
104 49 28
105 49 28
106 49 28
107 49 28
108 49 28
109 49 28
110 -15 -37
111 -15 -37
112 -15 -37
113 -15 -37
114 -15 -37
115 -15 -37
116 -28 1
117 -28 1
118 -28 1
119 -28 1
120 28 -11
121 28 -11
122 28 -11
123 28 -11
124 -50 7
125 -50 7
126 -50 7
127 -21 26
128 -21 26
129 -21 26
130 -21 26
131 -21 26
132 -21 26
133 -21 26
134 1 -36
135 1 -36
136 1 -36
137 -17 -34
138 -17 -34
139 -17 -34
140 -27 10
141 -27 10
142 -27 10
143 46 46
144 46 46
145 46 46
146 35 25
147 35 25
148 35 25
149 35 25
150 35 25
151 35 25
152 35 25
153 -50 -36
154 -50 -36
155 -50 -36
156 -50 -36
157 -50 -36
158 25 11
159 25 11
160 25 11
161 25 11
162 27 9
163 27 9
164 27 9
165 27 9
166 27 9
167 -40 44
168 -40 44
169 -40 44
170 -34 39
171 -34 39
172 46 -48
173 46 -48
174 46 -48
175 46 -48
176 -39 24
177 -39 24
178 -39 24
179 -39 24
180 -39 24
181 -39 24
182 -39 24
183 -20 22
184 -20 22
185 -20 22
186 -20 22
187 -20 22
188 45 5
189 45 5
190 45 5
191 45 5
192 45 5
193 45 5
194 45 5
195 -45 13
196 -45 13
197 -45 13
198 -45 13
199 -45 13
200 38 25
201 38 25
202 38 25
203 38 25
204 -3 -3
205 -3 -3
206 -3 -3
207 -3 -3
208 -3 -3
209 -3 -3
210 19 -4
211 19 -4
212 19 -4
213 22 -18
214 22 -18
215 22 -18
216 22 -18
217 22 -18
218 22 -18
219 22 -18
220 -1 50
221 -1 50
222 -1 50
223 -1 50
224 -1 50
225 20 28
226 20 28
227 20 28
228 20 28
229 -14 28
230 -14 28
231 -14 28
232 -14 28
233 -14 28
234 -22 -15
235 -22 -15
236 -22 -15
237 -17 33
238 -17 33
239 -17 33
240 -17 33
241 -17 33
242 -22 -8
243 -22 -8
244 -22 -8
245 -22 -8
246 -22 -8
247 -1 2
248 -1 2
249 -1 2
250 -9 9
251 -9 9
252 -9 9
253 -9 9
254 -32 14
255 -32 14
256 -32 14
257 -32 14
258 1 -16
259 1 -16
260 1 -16
261 1 -16
262 1 -16
263 1 -16
264 40 -29
265 40 -29
266 40 -29
267 -45 36
268 -45 36
269 -44 -21
270 -44 -21
271 25 -32
272 25 -32
273 25 -32
274 25 -32
275 25 -32
276 25 -32
277 -6 50
278 -6 50
279 -6 50
280 -6 50
281 -6 50
282 -37 -47
283 -37 -47
284 -37 -47
285 -37 -47
286 -12 -28
287 -12 -28
288 -12 -28
289 -12 -28
290 -12 -28
291 -48 42
292 -48 42
293 -48 42
294 -48 42
295 -48 42
296 46 12
297 46 12
298 46 12
299 46 12
300 46 12
301 34 6
302 34 6
303 34 6
304 34 6
305 34 6
306 34 6
307 -9 29
308 -9 29
309 -9 29
310 -13 31
311 -13 31
312 -13 31
313 -13 31
314 -13 31
315 40 -23
316 40 -23
317 40 -23
318 -45 -36
319 -45 -36
320 -45 -36
321 -45 -36
322 -45 -36
323 27 -4
324 27 -4
325 27 -4
326 44 -21
327 44 -21
328 44 -21
329 44 -21
330 -1 -37
331 -1 -37
332 -1 -37
333 -13 -29
334 -13 -29
335 -13 -29
336 -13 -29
337 -13 -29
338 -13 38
339 -13 38
340 17 -1
341 17 -1
342 -39 -32
343 -39 -32
344 -39 -32
345 26 -46
346 26 -46
347 26 -46
348 26 -46
349 26 -46
350 26 -46
351 -12 20
352 -12 20
353 -12 20
354 -12 20
355 -12 20
356 -12 20
357 -12 20
358 42 -16
359 42 -16
360 42 -16
361 -44 -42
362 -44 -42
363 -44 -42
364 -32 1
365 -32 1
366 -32 1
367 -32 1
368 -32 1
369 11 -6
370 11 -6
371 11 -6
372 11 -6
373 -21 19
374 -21 19
375 -21 19
376 -21 19
377 -21 19
378 -21 19
379 -37 28
380 -37 28
381 -37 -1
382 -37 -1
383 -37 -1
384 -37 -1
385 -37 -1
386 -37 -1
387 -41 38
388 -41 38
389 -41 38
390 -41 38
391 -41 38
392 24 44
393 24 44
394 24 44
395 24 44
396 24 44
397 -31 -10
398 -31 -10
399 -31 -10
400 -31 -10
401 -31 -10
402 -31 -10
403 48 36
404 48 36
405 48 36
406 48 36
407 -47 -32
408 -47 -32
409 48 -23
410 48 -23
411 48 -23
412 38 -4
413 38 -4
414 38 -4
415 38 -4
416 38 -4
417 46 -39
418 46 -39
419 49 -37
420 49 -37
421 49 -37
422 49 -37
423 49 -37
424 49 -37
425 46 -42
426 46 -42
DEMAND_SECTION
1 0
2 20
3 10
4 20
5 20
6 5
7 1
8 1
9 20
10 20
11 1
12 1
13 20
14 10
15 5
16 20
17 1
18 1
19 20
20 10
21 1
22 10
23 1
24 1
25 1
26 1
27 20
28 5
29 1
30 20
31 1
32 1
33 1
34 10
35 5
36 1
37 1
38 1
39 20
40 1
41 10
42 5
43 1
44 20
45 20
46 1
47 1
48 1
49 20
50 1
51 1
52 1
53 1
54 10
55 1
56 1
57 1
58 1
59 10
60 1
61 1
62 20
63 1
64 1
65 1
66 20
67 10
68 20
69 10
70 5
71 1
72 1
73 20
74 5
75 1
76 1
77 1
78 1
79 10
80 1
81 1
82 1
83 1
84 20
85 10
86 5
87 1
88 1
89 20
90 20
91 5
92 1
93 1
94 1
95 20
96 10
97 5
98 1
99 20
100 20
101 5
102 1
103 1
104 20
105 10
106 5
107 1
108 1
109 1
110 20
111 10
112 1
113 1
114 1
115 1
116 20
117 5
118 1
119 1
120 20
121 10
122 1
123 1
124 20
125 20
126 5
127 20
128 20
129 5
130 1
131 1
132 1
133 1
134 20
135 20
136 5
137 20
138 5
139 1
140 10
141 5
142 1
143 20
144 1
145 1
146 20
147 20
148 5
149 1
150 1
151 1
152 1
153 20
154 1
155 1
156 1
157 1
158 20
159 5
160 1
161 1
162 10
163 1
164 1
165 1
166 1
167 20
168 10
169 1
170 10
171 5
172 20
173 20
174 5
175 1
176 20
177 20
178 5
179 1
180 1
181 1
182 1
183 20
184 10
185 5
186 1
187 1
188 20
189 20
190 5
191 1
192 1
193 1
194 1
195 20
196 10
197 1
198 1
199 1
200 20
201 5
202 1
203 1
204 10
205 5
206 1
207 1
208 1
209 1
210 10
211 5
212 1
213 20
214 20
215 5
216 1
217 1
218 1
219 1
220 10
221 1
222 1
223 1
224 1
225 20
226 20
227 1
228 1
229 20
230 20
231 1
232 1
233 1
234 10
235 1
236 1
237 10
238 5
239 1
240 1
241 1
242 20
243 20
244 1
245 1
246 1
247 20
248 1
249 1
250 20
251 10
252 5
253 1
254 20
255 10
256 5
257 1
258 20
259 20
260 1
261 1
262 1
263 1
264 20
265 1
266 1
267 10
268 5
269 20
270 10
271 20
272 10
273 1
274 1
275 1
276 1
277 20
278 10
279 5
280 1
281 1
282 20
283 5
284 1
285 1
286 20
287 1
288 1
289 1
290 1
291 10
292 1
293 1
294 1
295 1
296 20
297 20
298 5
299 1
300 1
301 20
302 20
303 1
304 1
305 1
306 1
307 20
308 10
309 1
310 20
311 5
312 1
313 1
314 1
315 20
316 5
317 1
318 20
319 10
320 1
321 1
322 1
323 20
324 20
325 5
326 20
327 10
328 5
329 1
330 20
331 5
332 1
333 20
334 20
335 1
336 1
337 1
338 20
339 5
340 20
341 1
342 20
343 10
344 1
345 20
346 10
347 5
348 1
349 1
350 1
351 20
352 20
353 5
354 1
355 1
356 1
357 1
358 20
359 10
360 5
361 20
362 20
363 1
364 20
365 10
366 1
367 1
368 1
369 20
370 20
371 1
372 1
373 20
374 20
375 1
376 1
377 1
378 1
379 20
380 5
381 10
382 5
383 1
384 1
385 1
386 1
387 20
388 5
389 1
390 1
391 1
392 10
393 1
394 1
395 1
396 1
397 10
398 5
399 1
400 1
401 1
402 1
403 20
404 10
405 1
406 1
407 20
408 10
409 20
410 20
411 1
412 20
413 5
414 1
415 1
416 1
417 20
418 1
419 10
420 5
421 1
422 1
423 1
424 1
425 10
426 5
DEPOT_SECTION
1
-1
EOF