Normalized Data/p03_12_normalized_split0.sol
425 -1 2 235 234 233 60 59 58 401 398 399 396 397 72 74 77 73 76 -9 10 11 8 222 219 220 221 223 276 277 278 280 279 27 28 24 -17 16 15 229 232 231 309 310 307 306 308 -20 19 18 158 159 160 157 225 226 227 224 -25 21 23 22 26 337 338 240 236 239 237 238 311 312 313 230 228 -35 37 34 36 33 109 110 111 114 112 113 29 30 136 138 137 -39 38 346 347 349 345 348 344 272 271 274 275 273 270 -43 47 46 44 45 368 370 371 369 -57 53 54 56 55 49 48 51 50 52 144 142 143 403 404 402 405 151 147 148 150 -62 63 64 61 169 170 167 166 168 292 290 291 293 294 267 266 180 -75 400 95 96 94 97 268 269 342 343 341 -83 86 84 87 85 363 366 364 365 367 116 115 -88 92 89 93 90 91 134 133 135 -101 100 99 102 98 331 329 330 257 259 262 260 261 -106 108 107 103 104 105 14 13 12 200 202 201 199 -118 117 383 382 380 381 384 385 124 125 123 195 198 196 194 197 -132 128 126 129 131 130 127 40 42 41 182 183 -141 139 140 254 255 256 253 179 177 176 175 178 181 -162 163 161 164 165 145 146 149 65 66 395 392 393 394 391 -174 171 172 173 424 425 416 417 421 418 419 422 -188 190 189 187 191 193 192 297 296 295 298 299 -207 204 208 206 205 203 243 245 244 242 241 251 250 249 252 -209 211 210 322 323 301 300 303 302 305 304 -217 216 265 264 263 420 423 410 408 409 327 315 314 316 -218 215 214 213 212 122 120 121 119 339 340 -246 248 247 -258 78 80 79 82 81 332 333 334 335 285 288 287 286 289 -319 318 321 320 317 69 71 68 67 70 284 282 283 281 31 32 336 -324 412 415 414 413 411 359 357 358 325 326 328 -355 353 352 356 354 350 351 185 184 186 375 377 374 376 372 373 -360 361 362 153 155 156 152 154 406 407 -379 378 5 3 7 4 6 388 389 386 387 390 0 





OBJ=
2995.959
BEST_KNOWN=
0.000